\ LP format - for model browsing. Use MPS format to capture full model detail.
Maximize
obj:   x[1] + x[135] + x[8] + x[13] + x[142] + x[18] + x[23] + x[25] + x[27]
   + x[28] + x[45] + x[46] + x[47] + x[50] + x[59] + x[61] + x[64] + x[68]
   + x[69] + x[70] + x[72] + x[80] + x[84] + x[86] + x[95] + x[96] + x[97]
   + x[100] + x[101] + x[110] + x[112] + x[115] + x[120] + x[122] + x[2]
   + x[130] + x[137] + x[14] + x[145] + x[34] + x[41] + x[51] + x[57]
   + x[60] + x[63] + x[65] + x[76] + x[79] + x[81] + x[91] + x[99] + x[103]
   + x[124] + x[3] + x[132] + x[9] + x[15] + x[144] + x[146] + x[150]
   + x[26] + x[29] + x[36] + x[44] + x[49] + x[54] + x[66] + x[71] + x[83]
   + x[85] + x[143] + x[105] + x[106] + x[113] + x[116] + x[4] + x[10]
   + x[11] + x[12] + x[16] + x[19] + x[148] + x[31] + x[38] + x[40] + x[56]
   + x[74] + x[78] + x[87] + x[93] + x[107] + x[111] + x[114] + x[118]
   + x[121] + x[5] + x[129] + x[131] + x[6] + x[7] + x[17] + x[21] + x[39]
   + x[42] + x[67] + x[82] + x[104] + x[139] + x[140] + x[22] + x[32]
   + x[48] + x[62] + x[98] + x[102] + x[126] + x[138] + x[141] + x[30]
   + x[35] + x[58] + x[147] + x[125] + x[24] + x[133] + x[134] + x[92]
   + x[94] + x[127] + x[75] + x[77] + x[109] + x[117] + x[128] + x[20]
   + x[55] + x[73] + x[136] + x[43] + x[89] + x[108] + x[123] + x[149]
   + x[33] + x[88] + x[119] + x[52] + x[53] + x[90] + x[37]
Subject To
 clq1: x[57] + x[36] + x[4] + x[74] <= 1
 clq2: x[25] + x[46] + x[101] + x[121] + x[7] <= 1
 clq3: x[68] + x[116] + x[74] + x[48] <= 1
 clq4: x[70] + x[72] + x[134] + x[117] <= 1
 clq5: x[13] + x[100] + x[110] + x[60] <= 1
 clq6: x[8] + x[70] + x[96] + x[147] <= 1
 clq7: x[142] + x[4] + x[31] <= 1
 clq8: x[68] + x[42] + x[58] <= 1
 clq9: x[96] + x[102] + x[55] <= 1
 clq10: x[23] + x[118] + x[53] <= 1
 clq11: x[25] + x[96] + x[60] + x[44] + x[93] <= 1
 clq12: x[69] + x[72] + x[3] <= 1
 clq13: x[122] + x[71] + x[131] + x[48] <= 1
 clq14: x[120] + x[41] + x[134] <= 1
 clq15: x[113] + x[74] + x[42] <= 1
 clq16: x[27] + x[39] + x[89] <= 1
 clq17: x[1] + x[69] + x[97] + x[110] <= 1
 clq18: x[80] + x[54] + x[102] <= 1
 clq19: x[72] + x[4] + x[11] + x[114] <= 1
 clq20: x[68] + x[6] + x[22] <= 1
 clq21: x[41] + x[26] + x[7] + x[58] <= 1
 clq22: x[56] + x[22] + x[128] + x[55] <= 1
 clq23: x[19] + x[39] + x[140] + x[123] <= 1
 clq24: x[8] + x[54] + x[74] <= 1
 clq25: x[142] + x[132] + x[7] + x[147] <= 1
 clq26: x[23] + x[91] + x[77] + x[90] <= 1
 clq27: x[100] + x[3] + x[54] + x[116] <= 1
 clq28: x[65] + x[78] + x[62] + x[102] <= 1
 clq29: x[124] + x[73] + x[89] <= 1
 clq30: x[113] + x[129] + x[123] <= 1
 clq31: x[31] + x[74] + x[53] <= 1
 clq32: x[45] + x[50] + x[121] + x[6] <= 1
 clq33: x[25] + x[61] + x[32] <= 1
 clq34: x[1] + x[70] + x[80] + x[84] + x[122] <= 1
 clq35: x[57] + x[54] + x[71] + x[93] <= 1
 clq36: x[41] + x[85] + x[42] + x[77] <= 1
 clq37: x[113] + x[10] + x[118] <= 1
 clq38: x[40] + x[21] + x[134] <= 1
 clq39: x[8] + x[46] + x[57] + x[94] <= 1
 clq40: x[27] + x[76] + x[30] <= 1
 clq41: x[59] + x[65] + x[12] + x[20] <= 1
 clq42: x[68] + x[143] + x[119] + x[53] <= 1
 clq43: x[110] + x[145] + x[56] + x[127] <= 1
 clq44: x[124] + x[66] + x[4] <= 1
 clq45: x[150] + x[11] + x[31] + x[48] <= 1
 clq46: x[142] + x[105] + x[58] <= 1
 clq47: x[45] + x[55] + x[89] <= 1
 clq48: x[23] + x[113] + x[134] <= 1
 clq49: x[61] + x[51] + x[49] + x[117] <= 1
 clq50: x[72] + x[38] + x[129] + x[82] <= 1
 clq51: x[100] + x[9] + x[148] <= 1
 clq52: x[112] + x[4] + x[118] <= 1
 clq53: x[91] + x[124] + x[19] <= 1
 clq54: x[3] + x[132] + x[83] + x[106] <= 1
 clq55: x[66] + x[10] + x[62] <= 1
 clq56: x[76] + x[40] + x[32] <= 1
 clq57: x[25] + x[114] + x[30] + x[20] <= 1
 clq58: x[139] + x[75] + x[89] <= 1
 clq59: x[27] + x[60] + x[6] <= 1
 clq60: x[120] + x[102] + x[147] <= 1
 clq61: x[103] + x[3] + x[26] <= 1
 clq62: x[65] + x[144] + x[42] <= 1
 clq63: x[80] + x[71] + x[22] + x[98] <= 1
 clq64: x[9] + x[85] + x[39] <= 1
 clq65: x[50] + x[74] + x[55] <= 1
 clq66: x[121] + x[129] + x[140] + x[75] + x[128] <= 1
 clq67: x[32] + x[58] + x[147] + x[52] <= 1
 clq68: x[8] + x[69] + x[92] <= 1
 clq69: x[118] + x[94] + x[88] <= 1
 clq70: x[81] + x[48] + x[123] <= 1
 clq71: x[142] + x[122] + x[138] + x[117] <= 1
 clq72: x[18] + x[110] + x[106] + x[10] <= 1
 clq73: x[23] + x[116] + x[6] <= 1
 clq74: x[59] + x[87] + x[75] <= 1
 clq75: x[45] + x[68] + x[93] <= 1
 clq76: x[100] + x[41] + x[53] <= 1
 clq77: x[68] + x[112] + x[126] <= 1
 clq78: x[13] + x[122] + x[145] + x[62] <= 1
 clq79: x[91] + x[105] + x[11] <= 1
 clq80: x[54] + x[19] + x[56] + x[134] <= 1
 clq81: x[46] + x[137] + x[31] + x[39] <= 1
 clq82: x[79] + x[4] + x[40] <= 1
 clq83: x[7] + x[21] + x[102] <= 1
 clq84: x[1] + x[135] + x[61] + x[96] <= 1
 clq85: x[27] + x[124] + x[33] <= 1
 clq86: x[8] + x[28] + x[12] + x[133] <= 1
 clq87: x[70] + x[51] + x[131] <= 1
 clq88: x[72] + x[29] + x[35] <= 1
 clq89: x[84] + x[42] + x[94] <= 1
 clq90: x[120] + x[139] + x[37] <= 1
 clq91: x[69] + x[34] + x[113] <= 1
 clq92: x[60] + x[132] + x[26] + x[108] <= 1
 clq93: x[103] + x[48] + x[30] + x[55] <= 1
 clq94: x[144] + x[16] + x[89] <= 1
 clq95: x[76] + x[91] + x[36] + x[92] <= 1
 clq96: x[61] + x[66] + x[83] + x[114] <= 1
 clq97: x[85] + x[5] + x[17] <= 1
 clq98: x[45] + x[74] + x[127] + x[119] <= 1
 clq99: x[25] + x[9] + x[104] + x[117] <= 1
 clq100: x[100] + x[57] + x[125] + x[123] <= 1
 clq101: x[15] + x[42] + x[88] <= 1
 clq102: x[23] + x[49] + x[33] <= 1
 clq103: x[50] + x[76] + x[53] <= 1
 clq104: x[59] + x[105] + x[116] <= 1
 clq105: x[64] + x[148] + x[147] <= 1
 clq106: x[112] + x[143] + x[87] <= 1
 clq107: x[34] + x[71] + x[40] <= 1
 clq108: x[132] + x[11] + x[141] + x[136] <= 1
 clq109: x[38] + x[139] + x[58] <= 1
 clq110: x[70] + x[4] + x[93] <= 1
 clq111: x[95] + x[118] + x[134] + x[52] <= 1
 clq112: x[110] + x[6] + x[21] + x[98] <= 1
 clq113: x[131] + x[22] + x[58] <= 1
 clq114: x[7] + x[126] + x[30] + x[35] <= 1
 clq115: x[41] + x[10] + x[73] <= 1
 clq116: x[142] + x[77] + x[20] <= 1
 clq117: x[18] + x[137] + x[43] <= 1
 clq118: x[27] + x[113] + x[140] <= 1
 clq119: x[72] + x[85] + x[32] <= 1
 clq120: x[84] + x[19] + x[37] <= 1
 clq121: x[115] + x[3] + x[44] <= 1
 clq122: x[120] + x[63] + x[3] <= 1
 clq123: x[135] + x[145] + x[144] + x[54] + x[147] <= 1
 clq124: x[51] + x[121] + x[92] <= 1
 clq125: x[65] + x[17] + x[88] <= 1
 clq126: x[79] + x[62] + x[136] <= 1
 clq127: x[2] + x[63] + x[124] <= 1
 clq128: x[13] + x[85] + x[31] <= 1
 clq129: x[28] + x[70] + x[102] <= 1
 clq130: x[38] + x[133] + x[94] <= 1
 clq131: x[95] + x[109] + x[89] <= 1
 clq132: x[1] + x[23] + x[64] <= 1
 clq133: x[47] + x[150] + x[127] <= 1
 clq134: x[50] + x[16] + x[92] <= 1
 clq135: x[59] + x[72] + x[15] <= 1
 clq136: x[68] + x[79] + x[5] <= 1
 clq137: x[69] + x[71] + x[148] + x[90] <= 1
 clq138: x[86] + x[103] + x[40] + x[128] <= 1
 clq139: x[96] + x[15] + x[116] + x[39] <= 1
 clq140: x[27] + x[112] + x[107] + x[22] <= 1
 clq141: x[60] + x[105] + x[53] <= 1
 clq142: x[26] + x[49] + x[43] <= 1
 clq143: x[36] + x[87] + x[20] <= 1
 clq144: x[66] + x[143] + x[42] <= 1
 clq145: x[91] + x[106] + x[74] <= 1
 clq146: x[46] + x[56] + x[82] <= 1
 clq147: x[18] + x[79] + x[93] + x[104] <= 1
 clq148: x[31] + x[114] + x[73] <= 1
 clq149: x[122] + x[7] + x[139] + x[125] <= 1
 clq150: x[24] + x[89] + x[119] <= 1
 clq151: x[84] + x[131] + x[55] <= 1
 clq152: x[36] + x[49] + x[123] + x[52] <= 1
 clq153: x[8] + x[29] + x[114] <= 1
 clq154: x[142] + x[9] + x[102] <= 1
 clq155: x[25] + x[129] + x[62] + x[33] <= 1
 clq156: x[13] + x[80] + x[32] <= 1
 clq157: x[68] + x[97] + x[57] <= 1
 clq158: x[100] + x[74] + x[149] <= 1
 clq159: x[115] + x[141] + x[88] <= 1
 clq160: x[120] + x[4] + x[10] <= 1
 clq161: x[34] + x[19] + x[22] <= 1
 clq162: x[41] + x[11] <= 1
 clq163: x[51] + x[66] + x[140] <= 1
 clq164: x[65] + x[91] + x[21] <= 1
 clq165: x[124] + x[48] + x[98] <= 1
 clq166: x[8] + x[113] + x[5] + x[6] <= 1
 clq167: x[111] + x[133] + x[77] <= 1
 clq168: x[50] + x[26] + x[118] <= 1
 clq169: x[121] + x[127] + x[109] <= 1
 clq170: x[44] + x[126] + x[134] <= 1
 clq171: x[9] + x[17] + x[94] <= 1
 clq172: x[1] + x[28] + x[120] <= 1
 clq173: x[23] + x[130] + x[146] <= 1
 clq174: x[45] + x[150] + x[37] <= 1
 clq175: x[47] + x[11] + x[42] <= 1
 clq176: x[59] + x[41] + x[9] + x[98] <= 1
 clq177: x[64] + x[2] + x[60] + x[81] <= 1
 clq178: x[101] + x[82] + x[133] <= 1
 clq179: x[110] + x[87] + x[35] <= 1
 clq180: x[137] + x[144] + x[143] <= 1
 clq181: x[83] + x[16] + x[108] <= 1
 clq182: x[105] + x[35] + x[24] <= 1
 clq183: x[130] + x[106] + x[119] <= 1
 clq184: x[65] + x[105] + x[4] + x[38] <= 1
 clq185: x[56] + x[78] + x[136] <= 1
 clq186: x[115] + x[58] + x[53] <= 1
 clq187: x[131] + x[75] <= 1
 clq188: x[72] + x[55] + x[73] <= 1
 clq189: x[142] + x[69] + x[14] <= 1
 clq190: x[46] + x[132] + x[140] <= 1
 clq191: x[61] + x[39] + x[20] <= 1
 clq192: x[70] + x[10] + x[19] + x[141] <= 1
 clq193: x[80] + x[29] + x[53] <= 1
 clq194: x[84] + x[137] + x[148] + x[89] <= 1
 clq195: x[86] + x[31] + x[125] <= 1
 clq196: x[96] + x[41] + x[3] + x[150] <= 1
 clq197: x[97] + x[29] + x[32] + x[77] <= 1
 clq198: x[100] + x[34] + x[52] <= 1
 clq199: x[70] + x[112] + x[66] + x[43] <= 1
 clq200: x[145] + x[118] + x[149] <= 1
 clq201: x[51] + x[63] + x[26] + x[21] <= 1
 clq202: x[57] + x[38] + x[109] <= 1
 clq203: x[76] + x[102] + x[37] <= 1
 clq204: x[135] + x[51] + x[103] <= 1
 clq205: x[124] + x[93] + x[17] <= 1
 clq206: x[27] + x[71] + x[104] <= 1
 clq207: x[85] + x[113] + x[117] <= 1
 clq208: x[116] + x[67] + x[134] <= 1
 clq209: x[40] + x[74] + x[62] + x[94] <= 1
 clq210: x[111] + x[48] + x[126] <= 1
 clq211: x[121] + x[131] + x[73] <= 1
 clq212: x[11] + x[75] + x[117] <= 1
 clq213: x[36] + x[16] + x[128] <= 1
 clq214: x[110] + x[123] + x[88] <= 1
 clq215: x[1] + x[13] + x[68] <= 1
 clq216: x[18] + x[44] + x[121] <= 1
 clq217: x[23] + x[78] + x[30] <= 1
 clq218: x[25] + x[31] + x[139] <= 1
 clq219: x[28] + x[56] + x[111] + x[92] <= 1
 clq220: x[45] + x[24] + x[134] <= 1
 clq221: x[47] + x[87] <= 1
 clq222: x[50] + x[84] + x[146] + x[129] <= 1
 clq223: x[101] + x[124] + x[140] <= 1
 clq224: x[83] + x[6] + x[48] + x[62] <= 1
 clq225: x[143] + x[139] + x[136] <= 1
 clq226: x[100] + x[106] + x[138] <= 1
 clq227: x[18] + x[114] + x[58] <= 1
 clq228: x[97] + x[82] + x[33] <= 1
 clq229: x[112] + x[144] + x[55] <= 1
 clq230: x[145] + x[102] + x[108] <= 1
 clq231: x[142] + x[115] + x[119] <= 1
 clq232: x[46] + x[34] + x[109] <= 1
 clq233: x[47] + x[39] <= 1
 clq234: x[59] + x[122] + x[76] <= 1
 clq235: x[61] + x[2] + x[76] + x[79] <= 1
 clq236: x[64] + x[104] <= 1
 clq237: x[69] + x[95] + x[7] <= 1
 clq238: x[72] + x[49] <= 1
 clq239: x[80] + x[34] + x[127] <= 1
 clq240: x[47] + x[86] + x[123] <= 1
 clq241: x[120] + x[103] <= 1
 clq242: x[14] + x[65] + x[119] <= 1
 clq243: x[57] + x[107] + x[32] <= 1
 clq244: x[60] + x[42] <= 1
 clq245: x[135] + x[81] + x[124] + x[118] <= 1
 clq246: x[91] + x[67] + x[88] <= 1
 clq247: x[15] + x[85] + x[22] <= 1
 clq248: x[71] + x[5] + x[129] <= 1
 clq249: x[120] + x[116] + x[104] <= 1
 clq250: x[87] + x[93] + x[77] <= 1
 clq251: x[126] + x[20] <= 1
 clq252: x[68] + x[69] + x[125] <= 1
 clq253: x[44] + x[75] + x[20] <= 1
 clq254: x[101] + x[49] + x[128] <= 1
 clq255: x[85] + x[149] + x[90] <= 1
 clq256: x[1] + x[8] <= 1
 clq257: x[13] + x[108] + x[33] <= 1
 clq258: x[23] + x[131] + x[98] <= 1
 clq259: x[25] + x[106] + x[35] <= 1
 clq260: x[27] + x[40] <= 1
 clq261: x[45] + x[14] + x[133] <= 1
 clq262: x[64] + x[42] + x[37] <= 1
 clq263: x[72] + x[147] + x[125] <= 1
 clq264: x[96] + x[19] + x[33] <= 1
 clq265: x[110] + x[114] + x[89] <= 1
 clq266: x[60] + x[3] + x[15] <= 1
 clq267: x[63] + x[16] + x[123] <= 1
 clq268: x[103] + x[132] + x[38] <= 1
 clq269: x[143] + x[4] + x[107] <= 1
 clq270: x[113] + x[11] + x[55] <= 1
 clq271: x[10] + x[78] <= 1
 clq272: x[148] + x[128] + x[73] <= 1
 clq273: x[17] + x[53] <= 1
 clq274: x[72] + x[57] + x[21] + x[58] <= 1
 clq275: x[83] + x[39] + x[43] <= 1
 clq276: x[82] + x[24] <= 1
 clq277: x[80] + x[40] + x[126] + x[138] <= 1
 clq278: x[30] + x[125] + x[94] <= 1
 clq279: x[26] + x[66] + x[52] <= 1
 clq280: x[1] + x[59] + x[100] <= 1
 clq281: x[8] + x[141] + x[134] <= 1
 clq282: x[142] + x[137] + x[133] <= 1
 clq283: x[27] + x[93] + x[67] <= 1
 clq284: x[28] + x[5] <= 1
 clq285: x[46] + x[110] + x[74] <= 1
 clq286: x[50] + x[54] + x[75] <= 1
 clq287: x[86] + x[7] + x[138] <= 1
 clq288: x[115] + x[36] <= 1
 clq289: x[122] + x[140] + x[77] + x[136] <= 1
 clq290: x[145] + x[9] + x[109] <= 1
 clq291: x[63] + x[91] + x[53] <= 1
 clq292: x[144] + x[4] + x[12] + x[148] <= 1
 clq293: x[146] + x[71] + x[56] <= 1
 clq294: x[150] + x[105] + x[106] <= 1
 clq295: x[116] + x[24] <= 1
 clq296: x[10] + x[11] + x[17] <= 1
 clq297: x[34] + x[31] + x[78] <= 1
 clq298: x[87] + x[102] + x[136] <= 1
 clq299: x[121] + x[104] + x[24] <= 1
 clq300: x[82] + x[88] <= 1
 clq301: x[13] + x[22] + x[149] <= 1
 clq302: x[92] + x[119] + x[37] <= 1
 clq303: x[127] + x[90] <= 1
 clq304: x[101] + x[117] + x[89] <= 1
 clq305: x[18] + x[131] <= 1
 clq306: x[23] + x[132] + x[29] <= 1
 clq307: x[25] + x[45] + x[19] <= 1
 clq308: x[28] + x[97] <= 1
 clq309: x[47] + x[130] + x[74] <= 1
 clq310: x[61] + x[68] <= 1
 clq311: x[64] + x[114] + x[21] <= 1
 clq312: x[95] + x[39] + x[127] <= 1
 clq313: x[96] + x[139] <= 1
 clq314: x[112] + x[103] + x[17] <= 1
 clq315: x[1] + x[25] + x[115] <= 1
 clq316: x[120] + x[36] + x[75] <= 1
 clq317: x[2] + x[41] + x[65] <= 1
 clq318: x[51] + x[42] + x[98] <= 1
 clq319: x[60] + x[73] + x[119] <= 1
 clq320: x[59] + x[84] + x[97] + x[81] <= 1
 clq321: x[3] + x[146] + x[143] <= 1
 clq322: x[44] + x[5] + x[82] <= 1
 clq323: x[49] + x[116] + x[55] <= 1
 clq324: x[113] + x[90] <= 1
 clq325: x[16] + x[20] <= 1
 clq326: x[13] + x[111] + x[88] <= 1
 clq327: x[27] + x[74] + x[118] + x[43] <= 1
 clq328: x[6] + x[32] <= 1
 clq329: x[15] + x[48] + x[94] <= 1
 clq330: x[38] + x[30] <= 1
 clq331: x[100] + x[35] <= 1
 clq332: x[50] + x[147] + x[149] <= 1
 clq333: x[129] + x[108] <= 1
 clq334: x[131] + x[102] + x[52] <= 1
 clq335: x[135] + x[8] + x[76] <= 1
 clq336: x[1] + x[142] + x[46] <= 1
 clq337: x[18] + x[70] + x[20] <= 1
 clq338: x[28] + x[108] <= 1
 clq339: x[61] + x[6] <= 1
 clq340: x[68] + x[80] + x[99] <= 1
 clq341: x[69] + x[124] + x[83] + x[35] <= 1
 clq342: x[86] + x[137] + x[114] <= 1
 clq343: x[96] + x[87] <= 1
 clq344: x[14] + x[66] <= 1
 clq345: x[145] + x[36] + x[113] <= 1
 clq346: x[79] + x[26] + x[71] <= 1
 clq347: x[110] + x[91] + x[141] <= 1
 clq348: x[150] + x[7] <= 1
 clq349: x[103] + x[54] + x[90] <= 1
 clq350: x[85] + x[82] + x[30] <= 1
 clq351: x[105] + x[16] <= 1
 clq352: x[29] + x[10] + x[109] <= 1
 clq353: x[31] + x[121] + x[138] <= 1
 clq354: x[56] + x[32] + x[149] <= 1
 clq355: x[78] + x[92] + x[33] <= 1
 clq356: x[93] + x[53] <= 1
 clq357: x[12] + x[107] + x[139] <= 1
 clq358: x[65] + x[67] <= 1
 clq359: x[22] + x[123] <= 1
 clq360: x[62] + x[126] + x[117] <= 1
 clq361: x[58] + x[73] <= 1
 clq362: x[105] + x[128] <= 1
 clq363: x[23] + x[133] + x[37] <= 1
 clq364: x[28] + x[51] <= 1
 clq365: x[45] + x[100] + x[122] <= 1
 clq366: x[47] + x[72] + x[6] + x[104] <= 1
 clq367: x[61] + x[7] <= 1
 clq368: x[64] + x[129] <= 1
 clq369: x[95] + x[146] + x[11] <= 1
 clq370: x[96] + x[106] <= 1
 clq371: x[101] + x[39] + x[62] <= 1
 clq372: x[112] + x[132] + x[98] <= 1
 clq373: x[115] + x[14] + x[134] <= 1
 clq374: x[120] + x[130] + x[7] <= 1
 clq375: x[2] + x[137] + x[57] <= 1
 clq376: x[41] + x[111] + x[129] <= 1
 clq377: x[60] + x[65] + x[48] <= 1
 clq378: x[63] + x[5] + x[67] <= 1
 clq379: x[3] + x[29] + x[66] <= 1
 clq380: x[9] + x[147] + x[77] <= 1
 clq381: x[144] + x[56] + x[52] <= 1
 clq382: x[150] + x[40] <= 1
 clq383: x[44] + x[38] + x[107] <= 1
 clq384: x[49] + x[4] <= 1
 clq385: x[143] + x[127] <= 1
 clq386: x[116] + x[136] + x[108] <= 1
 clq387: x[4] + x[16] + x[19] <= 1
 clq388: x[40] + x[87] + x[89] <= 1
 clq389: x[93] + x[58] + x[20] <= 1
 clq390: x[34] + x[42] + x[138] <= 1
 clq391: x[140] + x[24] <= 1
 clq392: x[70] + x[22] + x[75] <= 1
 clq393: x[91] + x[94] + x[119] <= 1
 clq394: x[77] + x[128] + x[53] <= 1
 clq395: x[10] + x[20] + x[55] <= 1
 clq396: x[68] + x[78] + x[123] <= 1
 clq397: x[47] + x[131] + x[88] <= 1
 clq398: x[135] + x[109] <= 1
 clq399: x[8] + x[139] + x[35] <= 1
 clq400: x[142] + x[15] + x[83] <= 1
 clq401: x[18] + x[59] + x[49] <= 1
 clq402: x[28] + x[17] <= 1
 clq403: x[46] + x[113] <= 1
 clq404: x[50] + x[73] <= 1
 clq405: x[61] + x[71] + x[73] <= 1
 clq406: x[64] + x[106] <= 1
 clq407: x[86] + x[96] + x[122] <= 1
 clq408: x[2] + x[145] + x[99] <= 1
 clq409: x[51] + x[76] + x[141] <= 1
 clq410: x[64] + x[79] + x[140] <= 1
 clq411: x[145] + x[81] + x[148] <= 1
 clq412: x[150] + x[125] <= 1
 clq413: x[26] + x[105] <= 1
 clq414: x[54] + x[106] + x[21] <= 1
 clq415: x[97] + x[85] <= 1
 clq416: x[143] + x[24] <= 1
 clq417: x[31] + x[30] <= 1
 clq418: x[118] + x[92] <= 1
 clq419: x[100] + x[121] <= 1
 clq420: x[132] + x[32] <= 1
 clq421: x[102] + x[43] <= 1
 clq422: x[41] + x[63] + x[126] + x[37] <= 1
 clq423: x[69] + x[96] + x[127] <= 1
 clq424: x[102] + x[117] + x[53] <= 1
 clq425: x[66] + x[90] <= 1
 clq426: x[135] + x[11] <= 1
 clq427: x[13] + x[101] <= 1
 clq428: x[23] + x[5] <= 1
 clq429: x[25] + x[84] + x[105] <= 1
 clq430: x[27] + x[15] + x[143] <= 1
 clq431: x[28] + x[72] + x[22] <= 1
 clq432: x[45] + x[9] <= 1
 clq433: x[46] + x[24] <= 1
 clq434: x[50] + x[2] + x[130] <= 1
 clq435: x[80] + x[134] <= 1
 clq436: x[95] + x[16] + x[17] <= 1
 clq437: x[110] + x[33] <= 1
 clq438: x[112] + x[44] + x[92] <= 1
 clq439: x[115] + x[57] <= 1
 clq440: x[120] + x[146] + x[88] <= 1
 clq441: x[2] + x[14] + x[103] <= 1
 clq442: x[60] + x[78] + x[82] <= 1
 clq443: x[3] + x[36] <= 1
 clq444: x[144] + x[58] <= 1
 clq445: x[150] + x[16] + x[109] <= 1
 clq446: x[26] + x[19] <= 1
 clq447: x[85] + x[114] <= 1
 clq448: x[135] + x[113] + x[125] <= 1
 clq449: x[97] + x[116] <= 1
 clq450: x[12] + x[118] + x[108] <= 1
 clq451: x[31] + x[147] <= 1
 clq452: x[100] + x[38] + x[32] <= 1
 clq453: x[87] + x[33] <= 1
 clq454: x[93] + x[30] <= 1
 clq455: x[111] + x[55] <= 1
 clq456: x[80] + x[121] <= 1
 clq457: x[39] + x[94] <= 1
 clq458: x[42] + x[67] <= 1
 clq459: x[48] + x[134] + x[43] <= 1
 clq460: x[97] + x[133] + x[89] <= 1
 clq461: x[10] + x[114] + x[128] <= 1
 clq462: x[84] + x[107] + x[123] <= 1
 clq463: x[67] + x[52] <= 1
 clq464: x[18] + x[90] <= 1
 clq465: x[1] + x[18] + x[101] <= 1
 clq466: x[8] + x[131] + x[17] <= 1
 clq467: x[13] + x[98] <= 1
 clq468: x[142] + x[34] <= 1
 clq469: x[23] + x[51] <= 1
 clq470: x[45] + x[7] <= 1
 clq471: x[46] + x[65] <= 1
 clq472: x[61] + x[11] + x[43] <= 1
 clq473: x[68] + x[3] <= 1
 clq474: x[70] + x[104] <= 1
 clq475: x[86] + x[55] <= 1
 clq476: x[110] + x[63] + x[129] <= 1
 clq477: x[115] + x[132] <= 1
 clq478: x[137] + x[36] <= 1
 clq479: x[57] + x[39] <= 1
 clq480: x[79] + x[66] <= 1
 clq481: x[81] + x[19] <= 1
 clq482: x[91] + x[147] <= 1
 clq483: x[99] + x[66] <= 1
 clq484: x[124] + x[42] <= 1
 clq485: x[9] + x[75] <= 1
 clq486: x[3] + x[144] <= 1
 clq487: x[150] + x[26] + x[6] <= 1
 clq488: x[49] + x[40] + x[92] <= 1
 clq489: x[54] + x[87] <= 1
 clq490: x[101] + x[71] + x[52] <= 1
 clq491: x[130] + x[85] + x[62] <= 1
 clq492: x[116] + x[139] <= 1
 clq493: x[148] + x[5] <= 1
 clq494: x[31] + x[98] <= 1
 clq495: x[4] + x[56] + x[121] <= 1
 clq496: x[93] + x[149] <= 1
 clq497: x[65] + x[132] + x[111] <= 1
 clq498: x[5] + x[21] <= 1
 clq499: x[140] + x[58] <= 1
 clq500: x[141] + x[117] <= 1
 clq501: x[30] + x[33] <= 1
 clq502: x[103] + x[24] <= 1
 clq503: x[104] + x[94] <= 1
 clq504: x[76] + x[127] <= 1
 clq505: x[67] + x[90] <= 1
 clq506: x[13] + x[50] + x[35] <= 1
 clq507: x[142] + x[22] <= 1
 clq508: x[23] + x[14] <= 1
 clq509: x[25] + x[34] <= 1
 clq510: x[27] + x[105] + x[73] <= 1
 clq511: x[28] + x[54] <= 1
 clq512: x[13] + x[45] + x[44] <= 1
 clq513: x[46] + x[58] <= 1
 clq514: x[59] + x[80] <= 1
 clq515: x[64] + x[109] <= 1
 clq516: x[68] + x[81] + x[89] <= 1
 clq517: x[69] + x[75] + x[108] <= 1
 clq518: x[70] + x[139] <= 1
 clq519: x[86] + x[133] <= 1
 clq520: x[95] + x[54] + x[128] <= 1
 clq521: x[112] + x[113] <= 1
 clq522: x[115] + x[31] + x[129] <= 1
 clq523: x[25] + x[120] + x[136] <= 1
 clq524: x[122] + x[141] <= 1
 clq525: x[137] + x[116] <= 1
 clq526: x[51] + x[74] <= 1
 clq527: x[57] + x[140] <= 1
 clq528: x[60] + x[4] + x[87] <= 1
 clq529: x[79] + x[9] + x[21] <= 1
 clq530: x[91] + x[143] + x[109] <= 1
 clq531: x[99] + x[102] <= 1
 clq532: x[124] + x[24] <= 1
 clq533: x[144] + x[107] <= 1
 clq534: x[29] + x[55] <= 1
 clq535: x[36] + x[39] + x[32] <= 1
 clq536: x[83] + x[147] <= 1
 clq537: x[106] + x[118] <= 1
 clq538: x[130] + x[12] + x[123] <= 1
 clq539: x[19] + x[7] <= 1
 clq540: x[15] + x[148] + x[38] <= 1
 clq541: x[78] + x[93] <= 1
 clq542: x[101] + x[42] + x[149] <= 1
 clq543: x[19] + x[82] + x[125] <= 1
 clq544: x[48] + x[90] <= 1
 clq545: x[131] + x[6] + x[126] <= 1
 clq546: x[135] + x[30] <= 1
 clq547: x[27] + x[94] + x[117] <= 1
 clq548: x[71] + x[127] <= 1
 clq549: x[102] + x[88] + x[90] <= 1
 clq550: x[141] + x[119] <= 1
 clq551: x[34] + x[53] <= 1
 clq552: x[1] + x[47] <= 1
 clq553: x[8] + x[145] <= 1
 clq554: x[142] + x[111] <= 1
 clq555: x[23] + x[122] <= 1
 clq556: x[28] + x[57] <= 1
 clq557: x[46] + x[41] <= 1
 clq558: x[59] + x[132] + x[10] <= 1
 clq559: x[61] + x[113] <= 1
 clq560: x[64] + x[83] <= 1
 clq561: x[70] + x[76] <= 1
 clq562: x[80] + x[106] <= 1
 clq563: x[86] + x[93] <= 1
 clq564: x[96] + x[52] <= 1
 clq565: x[100] + x[2] + x[51] <= 1
 clq566: x[110] + x[38] <= 1
 clq567: x[112] + x[119] <= 1
 clq568: x[137] + x[5] <= 1
 clq569: x[14] + x[74] <= 1
 clq570: x[99] + x[134] <= 1
 clq571: x[103] + x[77] <= 1
 clq572: x[124] + x[3] <= 1
 clq573: x[144] + x[146] <= 1
 clq574: x[137] + x[26] <= 1
 clq575: x[29] + x[11] <= 1
 clq576: x[49] + x[67] <= 1
 clq577: x[66] + x[40] <= 1
 clq578: x[3] + x[85] <= 1
 clq579: x[116] + x[56] + x[114] <= 1
 clq580: x[65] + x[118] <= 1
 clq581: x[12] + x[121] <= 1
 clq582: x[5] + x[7] + x[104] <= 1
 clq583: x[139] + x[53] <= 1
 clq584: x[140] + x[37] <= 1
 clq585: x[39] + x[22] <= 1
 clq586: x[104] + x[48] + x[33] <= 1
 clq587: x[40] + x[98] <= 1
 clq588: x[30] + x[136] <= 1
 clq589: x[36] + x[58] <= 1
 clq590: x[104] + x[147] + x[133] <= 1
 clq591: x[8] + x[24] <= 1
 clq592: x[23] + x[127] + x[43] <= 1
 clq593: x[97] + x[20] + x[123] <= 1
 clq594: x[55] + x[37] <= 1
 clq595: x[1] + x[72] <= 1
 clq596: x[135] + x[111] + x[119] <= 1
 clq597: x[142] + x[120] <= 1
 clq598: x[18] + x[34] + x[7] <= 1
 clq599: x[28] + x[78] <= 1
 clq600: x[45] + x[105] + x[131] <= 1
 clq601: x[46] + x[47] <= 1
 clq602: x[50] + x[81] <= 1
 clq603: x[61] + x[149] <= 1
 clq604: x[64] + x[53] <= 1
 clq605: x[68] + x[120] + x[107] <= 1
 clq606: x[69] + x[41] <= 1
 clq607: x[70] + x[113] <= 1
 clq608: x[80] + x[139] <= 1
 clq609: x[84] + x[108] <= 1
 clq610: x[86] + x[82] <= 1
 clq611: x[18] + x[95] + x[85] <= 1
 clq612: x[96] + x[115] <= 1
 clq613: x[110] + x[57] <= 1
 clq614: x[112] + x[76] <= 1
 clq615: x[122] + x[75] <= 1
 clq616: x[14] + x[44] + x[129] <= 1
 clq617: x[145] + x[98] <= 1
 clq618: x[60] + x[16] + x[22] <= 1
 clq619: x[79] + x[83] <= 1
 clq620: x[91] + x[73] + x[43] <= 1
 clq621: x[99] + x[74] <= 1
 clq622: x[103] + x[5] + x[42] <= 1
 clq623: x[124] + x[138] <= 1
 clq624: x[9] + x[150] + x[138] <= 1
 clq625: x[144] + x[35] <= 1
 clq626: x[146] + x[93] <= 1
 clq627: x[26] + x[77] + x[89] <= 1
 clq628: x[29] + x[134] <= 1
 clq629: x[3] + x[49] + x[71] <= 1
 clq630: x[66] + x[92] <= 1
 clq631: x[143] + x[67] <= 1
 clq632: x[106] + x[17] <= 1
 clq633: x[11] + x[58] <= 1
 clq634: x[148] + x[87] <= 1
 clq635: x[70] + x[31] + x[32] <= 1
 clq636: x[118] + x[125] <= 1
 clq637: x[121] + x[21] + x[77] <= 1
 clq638: x[67] + x[140] + x[108] <= 1
 clq639: x[69] + x[62] <= 1
 clq640: x[74] + x[126] <= 1
 clq641: x[141] + x[30] <= 1
 clq642: x[29] + x[24] + x[75] <= 1
 clq643: x[12] + x[94] <= 1
 clq644: x[117] + x[136] <= 1
 clq645: x[76] + x[128] <= 1
 clq646: x[137] + x[55] <= 1
 clq647: x[149] + x[88] <= 1
 clq648: x[57] + x[52] <= 1
 clq649: x[1] + x[112] <= 1
 clq650: x[8] + x[81] <= 1
 clq651: x[142] + x[92] <= 1
 clq652: x[25] + x[66] <= 1
 clq653: x[28] + x[126] <= 1
 clq654: x[46] + x[6] <= 1
 clq655: x[47] + x[140] + x[134] <= 1
 clq656: x[50] + x[48] <= 1
 clq657: x[59] + x[117] <= 1
 clq658: x[61] + x[147] <= 1
 clq659: x[64] + x[88] <= 1
 clq660: x[72] + x[79] <= 1
 clq661: x[80] + x[146] <= 1
 clq662: x[84] + x[10] <= 1
 clq663: x[86] + x[83] + x[113] <= 1
 clq664: x[96] + x[94] <= 1
 clq665: x[100] + x[65] <= 1
 clq666: x[110] + x[102] <= 1
 clq667: x[115] + x[40] <= 1
 clq668: x[122] + x[148] <= 1
 clq669: x[145] + x[35] <= 1
 clq670: x[41] + x[106] <= 1
 clq671: x[51] + x[139] <= 1
 clq672: x[63] + x[38] <= 1
 clq673: x[99] + x[20] <= 1
 clq674: x[124] + x[37] <= 1
 clq675: x[15] + x[19] <= 1
 clq676: x[144] + x[128] <= 1
 clq677: x[36] + x[133] <= 1
 clq678: x[54] + x[118] + x[123] <= 1
 clq679: x[143] + x[11] <= 1
 clq680: x[116] + x[109] <= 1
 clq681: x[69] + x[56] <= 1
 clq682: x[78] + x[98] <= 1
 clq683: x[8] + x[61] + x[87] <= 1
 clq684: x[12] + x[93] + x[109] <= 1
 clq685: x[68] + x[114] <= 1
 clq686: x[17] + x[55] <= 1
 clq687: x[34] + x[39] + x[141] <= 1
 clq688: x[100] + x[82] <= 1
 clq689: x[62] + x[90] <= 1
 clq690: x[41] + x[30] <= 1
 clq691: x[14] + x[58] <= 1
 clq692: x[66] + x[125] <= 1
 clq693: x[46] + x[127] <= 1
 clq694: x[132] + x[33] <= 1
 clq695: x[130] + x[52] <= 1
 clq696: x[99] + x[53] <= 1
 clq697: x[1] + x[45] <= 1
 clq698: x[135] + x[80] <= 1
 clq699: x[13] + x[142] <= 1
 clq700: x[23] + x[4] <= 1
 clq701: x[25] + x[48] <= 1
 clq702: x[27] + x[65] <= 1
 clq703: x[28] + x[150] <= 1
 clq704: x[50] + x[111] <= 1
 clq705: x[59] + x[85] <= 1
 clq706: x[64] + x[97] <= 1
 clq707: x[72] + x[9] <= 1
 clq708: x[84] + x[57] <= 1
 clq709: x[1] + x[95] <= 1
 clq710: x[96] + x[88] <= 1
 clq711: x[110] + x[51] <= 1
 clq712: x[112] + x[82] <= 1
 clq713: x[115] + x[71] <= 1
 clq714: x[122] + x[113] + x[16] <= 1
 clq715: x[137] + x[134] <= 1
 clq716: x[145] + x[133] <= 1
 clq717: x[60] + x[114] <= 1
 clq718: x[63] + x[79] <= 1
 clq719: x[76] + x[11] <= 1
 clq720: x[81] + x[117] <= 1
 clq721: x[91] + x[126] <= 1
 clq722: x[103] + x[20] <= 1
 clq723: x[124] + x[74] <= 1
 clq724: x[15] + x[121] <= 1
 clq725: x[144] + x[129] <= 1
 clq726: x[146] + x[10] <= 1
 clq727: x[26] + x[94] <= 1
 clq728: x[36] + x[107] <= 1
 clq729: x[44] + x[33] <= 1
 clq730: x[49] + x[102] <= 1
 clq731: x[143] + x[37] <= 1
 clq732: x[105] + x[33] <= 1
 clq733: x[106] + x[31] <= 1
 clq734: x[65] + x[116] <= 1
 clq735: x[19] + x[35] + x[119] <= 1
 clq736: x[148] + x[24] <= 1
 clq737: x[38] + x[98] <= 1
 clq738: x[40] + x[139] <= 1
 clq739: x[44] + x[56] <= 1
 clq740: x[78] + x[58] <= 1
 clq741: x[6] + x[102] <= 1
 clq742: x[68] + x[17] <= 1
 clq743: x[21] + x[136] <= 1
 clq744: x[36] + x[42] <= 1
 clq745: x[22] + x[90] <= 1
 clq746: x[135] + x[32] <= 1
 clq747: x[62] + x[37] <= 1
 clq748: x[79] + x[30] + x[128] <= 1
 clq749: x[147] + x[55] <= 1
 clq750: x[132] + x[125] <= 1
 clq751: x[11] + x[92] <= 1
 clq752: x[147] + x[127] <= 1
 clq753: x[73] + x[52] <= 1
 clq754: x[141] + x[89] <= 1
 clq755: x[98] + x[149] <= 1
 clq756: x[67] + x[53] <= 1
 clq757: x[13] + x[54] + x[119] <= 1
 clq758: x[142] + x[95] <= 1
 clq759: x[23] + x[63] <= 1
 clq760: x[25] + x[127] <= 1
 clq761: x[27] + x[121] <= 1
 clq762: x[28] + x[26] <= 1
 clq763: x[45] + x[92] <= 1
 clq764: x[46] + x[97] <= 1
 clq765: x[47] + x[73] <= 1
 clq766: x[50] + x[82] <= 1
 clq767: x[59] + x[57] <= 1
 clq768: x[64] + x[32] <= 1
 clq769: x[69] + x[17] <= 1
 clq770: x[70] + x[105] <= 1
 clq771: x[72] + x[137] <= 1
 clq772: x[80] + x[14] <= 1
 clq773: x[84] + x[90] <= 1
 clq774: x[86] + x[108] <= 1
 clq775: x[96] + x[121] <= 1
 clq776: x[100] + x[42] <= 1
 clq777: x[101] + x[103] <= 1
 clq778: x[110] + x[41] <= 1
 clq779: x[112] + x[58] <= 1
 clq780: x[115] + x[131] <= 1
 clq781: x[120] + x[73] <= 1
 clq782: x[130] + x[40] <= 1
 clq783: x[145] + x[126] <= 1
 clq784: x[51] + x[10] <= 1
 clq785: x[60] + x[118] <= 1
 clq786: x[76] + x[3] + x[9] <= 1
 clq787: x[81] + x[138] <= 1
 clq788: x[2] + x[91] <= 1
 clq789: x[99] + x[83] <= 1
 clq790: x[124] + x[52] <= 1
 clq791: x[15] + x[93] <= 1
 clq792: x[57] + x[144] <= 1
 clq793: x[146] + x[116] <= 1
 clq794: x[150] + x[33] <= 1
 clq795: x[29] + x[74] <= 1
 clq796: x[49] + x[62] <= 1
 clq797: x[66] + x[75] <= 1
 clq798: x[71] + x[106] <= 1
 clq799: x[85] + x[4] <= 1
 clq800: x[143] + x[31] + x[134] <= 1
 clq801: x[148] + x[62] <= 1
 clq802: x[38] + x[114] <= 1
 clq803: x[56] + x[94] <= 1
 clq804: x[4] + x[78] + x[111] <= 1
 clq805: x[137] + x[87] <= 1
 clq806: x[107] + x[43] <= 1
 clq807: x[6] + x[139] <= 1
 clq808: x[7] + x[67] <= 1
 clq809: x[21] + x[55] <= 1
 clq810: x[39] + x[136] <= 1
 clq811: x[22] + x[125] <= 1
 clq812: x[51] + x[48] + x[24] <= 1
 clq813: x[133] + x[149] <= 1
 clq814: x[125] + x[117] <= 1
 clq815: x[68] + x[20] <= 1
 clq816: x[89] + x[88] <= 1
 clq817: x[81] + x[53] <= 1
 clq818: x[1] + x[50] <= 1
 clq819: x[135] + x[49] <= 1
 clq820: x[8] + x[84] <= 1
 clq821: x[142] + x[61] <= 1
 clq822: x[18] + x[98] <= 1
 clq823: x[23] + x[107] <= 1
 clq824: x[25] + x[83] <= 1
 clq825: x[27] + x[149] <= 1
 clq826: x[28] + x[88] <= 1
 clq827: x[45] + x[52] <= 1
 clq828: x[46] + x[123] <= 1
 clq829: x[47] + x[85] <= 1
 clq830: x[59] + x[86] <= 1
 clq831: x[64] + x[30] <= 1
 clq832: x[69] + x[21] <= 1
 clq833: x[70] + x[58] <= 1
 clq834: x[72] + x[12] <= 1
 clq835: x[80] + x[63] <= 1
 clq836: x[25] + x[95] <= 1
 clq837: x[96] + x[32] <= 1
 clq838: x[97] + x[71] <= 1
 clq839: x[100] + x[120] <= 1
 clq840: x[101] + x[105] <= 1
 clq841: x[110] + x[92] <= 1
 clq842: x[112] + x[108] <= 1
 clq843: x[115] + x[17] <= 1
 clq844: x[122] + x[26] <= 1
 clq845: x[130] + x[19] <= 1
 clq846: x[14] + x[131] <= 1
 clq847: x[145] + x[103] <= 1
 clq848: x[34] + x[146] <= 1
 clq849: x[41] + x[147] <= 1
 clq850: x[60] + x[116] <= 1
 clq851: x[65] + x[66] <= 1
 clq852: x[91] + x[16] <= 1
 clq853: x[99] + x[10] <= 1
 clq854: x[124] + x[87] <= 1
 clq855: x[132] + x[42] + x[139] <= 1
 clq856: x[15] + x[150] <= 1
 clq857: x[144] + x[77] <= 1
 clq858: x[29] + x[93] <= 1
 clq859: x[36] + x[148] <= 1
 clq860: x[44] + x[6] <= 1
 clq861: x[106] + x[67] <= 1
 clq862: x[11] + x[138] <= 1
 clq863: x[49] + x[38] <= 1
 clq864: x[40] + x[140] <= 1
 clq865: x[81] + x[56] <= 1
 clq866: x[74] + x[133] <= 1
 clq867: x[114] + x[92] <= 1
 clq868: x[118] + x[90] <= 1
 clq869: x[66] + x[5] + x[39] <= 1
 clq870: x[129] + x[17] <= 1
 clq871: x[7] + x[141] <= 1
 clq872: x[82] + x[109] <= 1
 clq873: x[41] + x[22] <= 1
 clq874: x[101] + x[102] <= 1
 clq875: x[126] + x[89] <= 1
 clq876: x[35] + x[90] <= 1
 clq877: x[58] + x[94] <= 1
 clq878: x[59] + x[127] <= 1
 clq879: x[30] + x[75] <= 1
 clq880: x[117] + x[73] <= 1
 clq881: x[124] + x[128] <= 1
 clq882: x[141] + x[20] <= 1
 clq883: x[145] + x[55] <= 1
 clq884: x[82] + x[136] <= 1
 clq885: x[123] + x[53] <= 1
 clq886: x[68] + x[37] <= 1
 clq887: x[1] + x[27] + x[86] <= 1
 clq888: x[135] + x[52] <= 1
 clq889: x[8] + x[22] <= 1
 clq890: x[13] + x[150] <= 1
 clq891: x[142] + x[63] <= 1
 clq892: x[18] + x[55] <= 1
 clq893: x[23] + x[15] <= 1
 clq894: x[28] + x[61] <= 1
 clq895: x[45] + x[117] <= 1
 clq896: x[46] + x[60] <= 1
 clq897: x[47] + x[78] <= 1
 clq898: x[50] + x[89] <= 1
 clq899: x[64] + x[57] <= 1
 clq900: x[69] + x[31] <= 1
 clq901: x[70] + x[91] <= 1
 clq902: x[72] + x[2] <= 1
 clq903: x[80] + x[128] <= 1
 clq904: x[84] + x[93] <= 1
 clq905: x[95] + x[104] <= 1
 clq906: x[18] + x[96] <= 1
 clq907: x[97] + x[112] <= 1
 clq908: x[100] + x[43] <= 1
 clq909: x[110] + x[126] <= 1
 clq910: x[115] + x[26] <= 1
 clq911: x[110] + x[120] <= 1
 clq912: x[122] + x[147] <= 1
 clq913: x[130] + x[79] <= 1
 clq914: x[137] + x[88] <= 1
 clq915: x[14] + x[102] <= 1
 clq916: x[34] + x[33] <= 1
 clq917: x[65] + x[147] <= 1
 clq918: x[76] + x[55] <= 1
 clq919: x[99] + x[48] <= 1
 clq920: x[103] + x[138] <= 1
 clq921: x[3] + x[105] <= 1
 clq922: x[9] + x[133] <= 1
 clq923: x[13] + x[144] <= 1
 clq924: x[146] + x[85] <= 1
 clq925: x[29] + x[56] <= 1
 clq926: x[36] + x[10] <= 1
 clq927: x[44] + x[12] <= 1
 clq928: x[54] + x[35] <= 1
 clq929: x[71] + x[83] <= 1
 clq930: x[143] + x[131] <= 1
 clq931: x[36] + x[106] <= 1
 clq932: x[113] + x[107] <= 1
 clq933: x[83] + x[116] <= 1
 clq934: x[57] + x[11] <= 1
 clq935: x[16] + x[127] <= 1
 clq936: x[19] + x[108] <= 1
 clq937: x[132] + x[148] <= 1
 clq938: x[38] + x[125] <= 1
 clq939: x[40] + x[133] <= 1
 clq940: x[74] + x[98] + x[136] <= 1
 clq941: x[87] + x[129] <= 1
 clq942: x[111] + x[53] <= 1
 clq943: x[114] + x[67] <= 1
 clq944: x[118] + x[75] <= 1
 clq945: x[124] + x[121] <= 1
 clq946: x[6] + x[140] <= 1
 clq947: x[84] + x[7] <= 1
 clq948: x[21] + x[32] <= 1
 clq949: x[139] + x[62] <= 1
 clq950: x[130] + x[24] <= 1
 clq951: x[60] + x[94] <= 1
 clq952: x[75] + x[77] <= 1
 clq953: x[109] + x[90] <= 1
 clq954: x[51] + x[20] <= 1
 clq955: x[129] + x[149] <= 1
 clq956: x[82] + x[37] <= 1
 clq957: x[135] + x[95] <= 1
 clq958: x[8] + x[127] <= 1
 clq959: x[142] + x[64] <= 1
 clq960: x[23] + x[101] <= 1
 clq961: x[25] + x[140] <= 1
 clq962: x[28] + x[62] <= 1
 clq963: x[45] + x[80] <= 1
 clq964: x[46] + x[96] <= 1
 clq965: x[47] + x[68] <= 1
 clq966: x[50] + x[104] <= 1
 clq967: x[59] + x[43] <= 1
 clq968: x[61] + x[116] <= 1
 clq969: x[69] + x[144] <= 1
 clq970: x[70] + x[148] <= 1
 clq971: x[72] + x[7] <= 1
 clq972: x[97] + x[134] <= 1
 clq973: x[100] + x[143] <= 1
 clq974: x[112] + x[121] <= 1
 clq975: x[115] + x[56] <= 1
 clq976: x[120] + x[128] <= 1
 clq977: x[122] + x[150] <= 1
 clq978: x[2] + x[34] <= 1
 clq979: x[137] + x[141] <= 1
 clq980: x[14] + x[30] <= 1
 clq981: x[145] + x[58] <= 1
 clq982: x[41] + x[105] <= 1
 clq983: x[63] + x[94] <= 1
 clq984: x[65] + x[22] <= 1
 clq985: x[76] + x[15] <= 1
 clq986: x[79] + x[6] <= 1
 clq987: x[81] + x[4] <= 1
 clq988: x[91] + x[108] <= 1
 clq989: x[99] + x[73] <= 1
 clq990: x[103] + x[114] <= 1
 clq991: x[3] + x[113] <= 1
 clq992: x[9] + x[48] <= 1
 clq993: x[146] + x[119] <= 1
 clq994: x[26] + x[93] <= 1
 clq995: x[29] + x[88] <= 1
 clq996: x[44] + x[39] <= 1
 clq997: x[49] + x[10] <= 1
 clq998: x[54] + x[20] <= 1
 clq999: x[71] + x[37] <= 1
 clq1000: x[85] + x[106] <= 1
 clq1001: x[11] + x[35] <= 1
 clq1002: x[12] + x[89] <= 1
 clq1003: x[16] + x[52] <= 1
 clq1004: x[19] + x[149] <= 1
 clq1005: x[31] + x[87] <= 1
 clq1006: x[38] + x[77] <= 1
 clq1007: x[40] + x[102] <= 1
 clq1008: x[78] + x[118] <= 1
 clq1009: x[107] + x[92] <= 1
 clq1010: x[111] + x[33] <= 1
 clq1011: x[5] + x[131] <= 1
 clq1012: x[17] + x[138] <= 1
 clq1013: x[21] + x[53] <= 1
 clq1014: x[42] + x[117] <= 1
 clq1015: x[32] + x[24] <= 1
 clq1016: x[126] + x[125] <= 1
 clq1017: x[109] + x[123] <= 1
Bounds
Binaries
 x[1] x[135] x[8] x[13] x[142] x[18] x[23] x[25] x[27] x[28] x[45] x[46]
 x[47] x[50] x[59] x[61] x[64] x[68] x[69] x[70] x[72] x[80] x[84] x[86]
 x[95] x[96] x[97] x[100] x[101] x[110] x[112] x[115] x[120] x[122] x[2]
 x[130] x[137] x[14] x[145] x[34] x[41] x[51] x[57] x[60] x[63] x[65] x[76]
 x[79] x[81] x[91] x[99] x[103] x[124] x[3] x[132] x[9] x[15] x[144] x[146]
 x[150] x[26] x[29] x[36] x[44] x[49] x[54] x[66] x[71] x[83] x[85] x[143]
 x[105] x[106] x[113] x[116] x[4] x[10] x[11] x[12] x[16] x[19] x[148]
 x[31] x[38] x[40] x[56] x[74] x[78] x[87] x[93] x[107] x[111] x[114]
 x[118] x[121] x[5] x[129] x[131] x[6] x[7] x[17] x[21] x[39] x[42] x[67]
 x[82] x[104] x[139] x[140] x[22] x[32] x[48] x[62] x[98] x[102] x[126]
 x[138] x[141] x[30] x[35] x[58] x[147] x[125] x[24] x[133] x[134] x[92]
 x[94] x[127] x[75] x[77] x[109] x[117] x[128] x[20] x[55] x[73] x[136]
 x[43] x[89] x[108] x[123] x[149] x[33] x[88] x[119] x[52] x[53] x[90]
 x[37]
End
